phase2/EC/problem951.out
broken_phone
clock
textbook
